(declare-const a String)
(declare-const GEN1 String)
(declare-const GEN2 String)
(declare-const GEN3 String)
(declare-const GEN4 String)
(declare-const GEN5 String)
(declare-const GEN6 String)
(declare-const GEN7 String)
(declare-const GEN8 String)
(declare-const GEN9 String)
(declare-const GEN10 String)
(declare-const GEN11 String)
(declare-const GEN12 String)
(declare-const GEN13 String)
(declare-const GEN14 String)
(declare-const GEN15 String)
(declare-const GEN16 String)
(declare-const GEN17 String)
(declare-const GEN18 String)
(declare-const GEN19 String)
(declare-const GEN20 String)
(declare-const GEN21 String)
(declare-const GEN22 String)
(declare-const GEN23 String)
(declare-const GEN24 String)
(declare-const GEN25 String)
(declare-const GEN26 String)
(declare-const GEN27 String)
(declare-const GEN28 String)
(declare-const GEN29 String)
(declare-const GEN30 String)
(declare-const GEN31 String)
(declare-const GEN32 String)
(declare-const GEN33 String)
(declare-const GEN34 String)
(declare-const GEN35 String)
(declare-const GEN36 String)
(declare-const GEN37 String)
(declare-const GEN38 String)
(declare-const GEN39 String)
(declare-const GEN40 String)
(declare-const GEN41 String)
(declare-const GEN42 String)
(declare-const GEN43 String)
(declare-const GEN44 String)
(declare-const GEN45 String)
(declare-const GEN46 String)
(declare-const GEN47 String)
(declare-const GEN48 String)
(declare-const GEN49 Int)
(declare-const GEN50 Int)
(declare-const GEN51 Int)
(declare-const GEN52 Int)
(declare-const GEN53 Int)
(declare-const GEN54 Int)
(declare-const GEN55 Int)
(declare-const GEN56 String)
(declare-const GEN57 Int)
(declare-const GEN58 String)
(declare-const GEN59 Int)
(declare-const GEN60 String)
(declare-const GEN61 Int)
(declare-const GEN62 String)
(declare-const GEN63 Int)
(declare-const GEN64 Int)
(declare-const GEN65 String)
(declare-const GEN66 Int)
(declare-const GEN67 Int)
(declare-const GEN68 String)
(declare-const GEN69 Int)
(declare-const GEN70 Int)
(declare-const GEN71 String)
(declare-const GEN72 String)
(declare-const GEN73 Int)
(declare-const GEN74 String)
(declare-const GEN75 String)
(declare-const GEN76 Int)
(declare-const GEN77 String)
(declare-const GEN78 String)
(declare-const GEN79 Int)
(declare-const GEN80 String)
(declare-const GEN81 String)
(declare-const GEN82 Int)
(declare-const GEN83 String)
(declare-const GEN84 String)
(declare-const GEN85 Int)
(declare-const GEN86 String)
(declare-const GEN87 String)
(declare-const GEN88 Int)
(declare-const GEN89 String)
(declare-const GEN90 String)
(declare-const GEN91 Int)
(declare-const GEN92 String)
(declare-const GEN93 String)
(declare-const GEN94 Int)
(declare-const GEN95 String)
(declare-const GEN96 String)
(declare-const GEN97 Int)
(declare-const GEN98 String)
(declare-const GEN99 String)
(declare-const GEN100 Int)
(declare-const GEN101 String)
(declare-const GEN102 Int)
(declare-const GEN103 String)
(declare-const GEN104 String)
(declare-const GEN105 Int)
(declare-const GEN106 String)
(declare-const GEN107 String)
(declare-const GEN108 String)
(declare-const GEN109 String)
(declare-const GEN110 Int)
(declare-const GEN111 String)
(declare-const GEN112 String)
(declare-const GEN113 Int)
(declare-const GEN114 String)
(declare-const GEN115 String)
(declare-const GEN116 Int)
(declare-const GEN117 String)
(declare-const GEN118 String)
(declare-const GEN119 Int)
(declare-const GEN120 String)
(declare-const GEN121 String)
(declare-const GEN122 Int)
(declare-const GEN123 String)
(declare-const GEN124 String)
(declare-const GEN125 Int)
(declare-const GEN126 String)
(declare-const GEN127 String)
(declare-const GEN128 Int)
(declare-const GEN129 String)
(declare-const GEN130 String)
(declare-const GEN131 String)
(declare-const GEN132 String)
(declare-const BAV133 Bool)
(declare-const BAV134 Bool)
(declare-const BAV135 Bool)
(declare-const BAV136 Bool)
(declare-const BAV137 Bool)
(declare-const BAV138 Bool)
(declare-const BAV139 Bool)
(declare-const BAV140 Bool)
(declare-const BAV141 Bool)
(declare-const BAV142 Bool)
(declare-const BAV143 Bool)
(declare-const BAV144 Bool)
(declare-const BAV145 Bool)
(declare-const BAV146 Bool)
(declare-const BAV147 Bool)
(declare-const BAV148 Bool)
(declare-const BAV149 Bool)
(declare-const BAV150 Bool)
(declare-const BAV151 Bool)
(declare-const BAV152 Bool)
(declare-const BAV153 Bool)
(declare-const BAV154 Bool)
(declare-const BAV155 Bool)
(declare-const BAV156 Bool)
(declare-const BAV157 Bool)
(declare-const BAV158 Bool)
(declare-const BAV159 Bool)
(declare-const BAV160 Bool)
(declare-const BAV161 Bool)
(declare-const BAV162 Bool)
(declare-const BAV163 Bool)
(declare-const BAV164 Bool)
(declare-const BAV165 Bool)
(declare-const BAV166 Bool)
(declare-const BAV167 Bool)
(declare-const BAV168 Bool)
(declare-const BAV169 Bool)
(declare-const BAV170 Bool)
(declare-const BAV171 Bool)
(declare-const BAV172 Bool)
(declare-const BAV173 Bool)
(declare-const BAV174 Bool)
(declare-const BAV175 Bool)
(declare-const BAV176 Bool)
(declare-const BAV177 Bool)
(declare-const BAV178 Bool)
(declare-const BAV179 Bool)
(declare-const BAV180 Bool)
(declare-const BAV181 Bool)
(declare-const BAV182 Bool)
(declare-const BAV183 Bool)
(declare-const BAV184 Bool)
(declare-const BAV185 Bool)
(declare-const BAV186 Bool)
(declare-const BAV187 Bool)
(declare-const BAV188 Bool)
(declare-const BAV189 Bool)
(declare-const BAV190 Bool)
(declare-const BAV191 Bool)
(declare-const BAV192 Bool)
(declare-const BAV193 Bool)
(declare-const BAV194 Bool)
(declare-const BAV195 Bool)
(declare-const BAV196 Bool)
(declare-const BAV197 Bool)
(declare-const BAV198 Bool)
(declare-const BAV199 Bool)
(declare-const BAV200 Bool)
(declare-const BAV201 Bool)
(declare-const BAV202 Bool)
(declare-const BAV203 Bool)
(declare-const BAV204 Bool)
(declare-const BAV205 Bool)
(declare-const BAV206 Bool)
(declare-const BAV207 Bool)
(declare-const BAV208 Bool)
(declare-const BAV209 Bool)
(declare-const BAV210 Bool)
(declare-const BAV211 Bool)
(declare-const BAV212 Bool)
(declare-const BAV213 Bool)
(declare-const BAV214 Bool)
(declare-const BAV215 Bool)
(declare-const BAV216 Bool)
(declare-const BAV217 Bool)
(declare-const BAV218 Bool)
(declare-const BAV219 Bool)
(declare-const BAV220 Bool)
(declare-const BAV221 Bool)
(declare-const BAV222 Bool)
(declare-const BAV223 Bool)
(declare-const BAV224 Bool)
(declare-const BAV225 Bool)
(declare-const BAV226 Bool)
(declare-const BAV227 Bool)
(declare-const BAV228 Bool)
(declare-const BAV229 Bool)
(declare-const BAV230 Bool)
(declare-const BAV231 Bool)
(declare-const BAV232 Bool)
(declare-const BAV233 Bool)
(declare-const BAV234 Bool)
(declare-const BAV235 Bool)
(declare-const BAV236 Bool)
(declare-const BAV237 Bool)
(declare-const BAV238 Bool)
(declare-const BAV239 Bool)
(declare-const BAV240 Bool)
(declare-const BAV241 Bool)
(declare-const BAV242 Bool)
(declare-const BAV243 Bool)
(declare-const BAV244 Bool)
(declare-const BAV245 Bool)
(declare-const BAV246 Bool)
(declare-const BAV247 Bool)
(declare-const BAV248 Bool)
(declare-const BAV249 Bool)
(declare-const BAV250 Bool)
(declare-const BAV251 Bool)
(declare-const BAV252 Bool)
(declare-const BAV253 Bool)
(declare-const BAV254 Bool)
(declare-const BAV255 Bool)
(declare-const BAV256 Bool)
(declare-const BAV257 Bool)
(declare-const BAV258 Bool)
(declare-const BAV259 Bool)
(declare-const b String)
(declare-const c String)
(declare-const d String)
(declare-const e String)
(push)
(assert (= a GEN1))
(assert (= BAV133 (= a GEN1)))
(assert (= BAV134 (= a (str.++ GEN2 GEN3))))
(assert (= BAV135 (= a b)))
(assert (= BAV136 (= a b)))
(assert (= BAV137 (= a GEN4)))
(assert (= BAV138 (= a (str.++ a GEN5))))
(assert (= BAV139 (= b (str.++ a GEN6))))
(assert (= BAV140 (= (str.++ a b) (str.++ b GEN7 a))))
(assert (= BAV141 (= (str.++ a GEN8) (str.++ GEN9 a))))
(assert (= BAV142 (= (str.++ a GEN10) (str.++ GEN11 a))))
(assert (= BAV143 (= a (str.++ b GEN12 c GEN13 d))))
(assert (= BAV144 (= a (str.++ b GEN14 c GEN15 a))))
(assert (= BAV145 (= a GEN16)))
(assert (= BAV146 (= (str.++ a b) GEN17)))
(assert (= BAV147 (= a GEN18)))
(assert (= BAV148 (= (str.++ a b) GEN19)))
(assert (= BAV149 (= a GEN20)))
(assert (= BAV150 (= (str.++ b a) GEN21)))
(assert (= BAV151 (= b GEN22)))
(assert (= BAV152 (= (str.++ a b c) GEN23)))
(assert (= BAV153 (= (str.++ a b) GEN24)))
(assert (= BAV154 (= (str.++ a b) GEN25)))
(assert (= BAV155 (= (str.++ a b) GEN26)))
(assert (= BAV156 (= (str.++ a b) GEN27)))
(assert (= BAV157 (= (str.++ b c) GEN28)))
(assert (= BAV158 (= b GEN29)))
(assert (= BAV159 (= (str.++ a b) c)))
(assert (= BAV160 (or (= a GEN30) (= a GEN31) (= a GEN32))))
(assert (= BAV161 (= a GEN30)))
(assert (= BAV162 (= a GEN31)))
(assert (= BAV163 (= a GEN32)))
(assert (= BAV164 (or (= c GEN33) (= c GEN34) (= c GEN35))))
(assert (= BAV165 (= c GEN33)))
(assert (= BAV166 (= c GEN34)))
(assert (= BAV167 (= c GEN35)))
(assert (= BAV168 (= (str.++ GEN36 a) (str.++ GEN37 b))))
(assert (= BAV169 (= (str.++ GEN38 a) (str.++ GEN39 b))))
(assert (= BAV170 (= (str.++ GEN40 a) (str.++ GEN41 b))))
(assert (= BAV171 (= (str.++ GEN42 a) (str.++ GEN43 b))))
(assert (= BAV172 (= (str.++ GEN44 a) (str.++ b GEN45))))
(assert (= BAV173 (= (str.++ GEN46 a) (str.++ b GEN47))))
(assert (= BAV174 (= (str.++ a b) (str.++ c d e))))
(assert (= BAV175 (= (str.len a) (str.len b))))
(assert (= BAV176 (= (str.++ a b) (str.++ c d e))))
(assert (= BAV177 (= (str.len a) (str.len b))))
(assert (= BAV178 (= a GEN48)))
(assert (= BAV179 (= (str.++ a b) (str.++ c d e))))
(assert (= BAV180 (= (str.len a) (str.len b))))
(assert (= BAV181 (> (str.len a) GEN49)))
(assert (= BAV182 (= (str.++ a b) c)))
(assert (= BAV183 (= (str.len a) GEN50)))
(assert (= BAV184 (= (str.len b) GEN51)))
(assert (= BAV185 (= (str.++ a b) c)))
(assert (= BAV186 (= (str.len a) GEN52)))
(assert (= BAV187 (= (str.len b) GEN53)))
(assert (= BAV188 (= (str.++ a b) c)))
(assert (= BAV189 (= (str.len a) GEN54)))
(assert (= BAV190 (= (str.len b) GEN55)))
(assert (= BAV191 (= (str.++ a b) (str.++ GEN56 c))))
(assert (= BAV192 (= (str.len a) GEN57)))
(assert (= BAV193 (= (str.++ a b) (str.++ GEN58 c))))
(assert (= BAV194 (= (str.len b) GEN59)))
(assert (= BAV195 (= (str.++ a b) (str.++ GEN60 c))))
(assert (= BAV196 (= (str.len c) GEN61)))
(assert (= BAV197 (= (str.++ a b) (str.++ GEN62 c))))
(assert (= BAV198 (= (str.len c) GEN63)))
(assert (= BAV199 (= (str.len a) GEN64)))
(assert (= BAV200 (= (str.++ a b) (str.++ GEN65 c))))
(assert (= BAV201 (= (str.len c) GEN66)))
(assert (= BAV202 (= (str.len b) GEN67)))
(assert (= BAV203 (= (str.++ a b) (str.++ GEN68 c))))
(assert (= BAV204 (= (str.len a) GEN69)))
(assert (= BAV205 (= (str.len b) GEN70)))
(assert (= BAV206 (= (str.++ a GEN71 b) (str.++ GEN72 c))))
(assert (= BAV207 (= (str.len a) GEN73)))
(assert (= BAV208 (= (str.++ a GEN74 b) (str.++ GEN75 c))))
(assert (= BAV209 (= (str.len b) GEN76)))
(assert (= BAV210 (= (str.++ a GEN77 b) (str.++ GEN78 c))))
(assert (= BAV211 (= (str.len c) GEN79)))
(assert (= BAV212 (= (str.++ a GEN80 b) (str.++ GEN81 c))))
(assert (= BAV213 (= (str.len c) GEN82)))
(assert (= BAV214 (= (str.++ a GEN83 b) (str.++ GEN84 c))))
(assert (= BAV215 (= (str.len c) GEN85)))
(assert (= BAV216 (= (str.++ a GEN86 b) (str.++ GEN87 c))))
(assert (= BAV217 (= (str.len c) GEN88)))
(assert (= BAV218 (= (str.++ GEN89 a) (str.++ b GEN90))))
(assert (= BAV219 (= (str.len a) GEN91)))
(assert (= BAV220 (= (str.++ GEN92 a) (str.++ b GEN93))))
(assert (= BAV221 (= (str.len a) GEN94)))
(assert (= BAV222 (= (str.++ GEN95 a) (str.++ b GEN96))))
(assert (= BAV223 (>= (str.len a) GEN97)))
(assert (= BAV224 (= (str.++ a GEN98) (str.++ b GEN99 d))))
(assert (= BAV225 (= (str.len a) GEN100)))
(assert (= BAV226 (= (= a GEN101) (= (str.len a) GEN102))))
(assert (= BAV227 (= a GEN101)))
(assert (= BAV228 (= (str.len a) GEN102)))
(assert (= BAV229 (= c (str.++ GEN103 b))))
(assert (= BAV230 (= c (str.++ a GEN104))))
(assert (= BAV231 (= (str.len a) GEN105)))
(assert (= BAV232 (= e (str.++ a GEN106))))
(assert (= BAV233 (= e (str.++ b c))))
(assert (= BAV234 (= e (str.++ GEN107 d))))
(assert (= BAV235 (= e (str.++ a GEN108 b))))
(assert (= BAV236 (= e (str.++ c GEN109 d))))
(assert (= BAV237 (= (str.len e) GEN110)))
(assert (= BAV238 (= e (str.++ a GEN111 b))))
(assert (= BAV239 (= e (str.++ c GEN112 d))))
(assert (= BAV240 (<= (str.len e) GEN113)))
(assert (= BAV241 (= e (str.++ a GEN114 b))))
(assert (= BAV242 (= e (str.++ c GEN115 d))))
(assert (= BAV243 (= (str.len e) GEN116)))
(assert (= BAV244 (= e (str.++ a GEN117 b))))
(assert (= BAV245 (= e (str.++ c GEN118 d))))
(assert (= BAV246 (= (str.len e) GEN119)))
(assert (= BAV247 (= e (str.++ a GEN120 b))))
(assert (= BAV248 (= e (str.++ c GEN121 d))))
(assert (= BAV249 (>= (str.len e) GEN122)))
(assert (= BAV250 (= (str.++ a GEN123) (str.++ GEN124 a))))
(assert (= BAV251 (= (str.len a) GEN125)))
(assert (= BAV252 (= (str.++ a GEN126) (str.++ GEN127 a))))
(assert (= BAV253 (= (str.len a) GEN128)))
(assert (= BAV254 (= a b)))
(assert (= BAV255 (= (str.len a) (str.len b))))
(assert (= BAV256 (= (str.++ c a b) (str.++ b a))))
(assert (= BAV257 (= (str.++ a GEN129 b) (str.++ b GEN130 c))))
(assert (= BAV258 (= c (str.++ a b))))
(assert (= BAV259 (= (str.++ a GEN131) (str.++ GEN132 a))))
(check-sat)
(get-model)
(pop)
(push)
(assert (= a (str.++ GEN2 GEN3)))
(check-sat)
(get-model)
(pop)
(push)
(assert (= a b))
(check-sat)
(pop)
(push)
(assert (not (= a b)))
(check-sat)
(pop)
(push)
(assert (not (= a GEN4)))
(check-sat)
(pop)
(push)
(assert (= a (str.++ a GEN5)))
(check-sat)
(pop)
(push)
(assert (= b (str.++ a GEN6)))
(check-sat)
(pop)
(push)
(assert (= (str.++ a b) (str.++ b GEN7 a)))
(check-sat)
(pop)
(push)
(assert (= (str.++ a GEN8) (str.++ GEN9 a)))
(check-sat)
(pop)
(push)
(assert (= (str.++ a GEN10) (str.++ GEN11 a)))
(check-sat)
(pop)
(push)
(assert (= a (str.++ b GEN12 c GEN13 d)))
(check-sat)
(pop)
(push)
(assert (= a (str.++ b GEN14 c GEN15 a)))
(check-sat)
(pop)
(push)
(assert (= a GEN16))
(assert (= (str.++ a b) GEN17))
(check-sat)
(get-model)
(pop)
(push)
(assert (= a GEN18))
(assert (= (str.++ a b) GEN19))
(check-sat)
(get-model)
(pop)
(push)
(assert (= a GEN20))
(assert (= (str.++ b a) GEN21))
(check-sat)
(get-model)
(pop)
(push)
(assert (= b GEN22))
(assert (= (str.++ a b c) GEN23))
(check-sat)
(get-model)
(pop)
(push)
(assert (= (str.++ a b) GEN24))
(check-sat)
(get-model)
(pop)
(push)
(assert (= (str.++ a b) GEN25))
(check-sat)
(pop)
(push)
(assert (= (str.++ a b) GEN26))
(check-sat)
(pop)
(push)
(assert (= (str.++ a b) GEN27))
(assert (= (str.++ b c) GEN28))
(assert (not (= b GEN29)))
(check-sat)
(pop)
(push)
(assert (= (str.++ a b) c))
(assert (or (= a GEN30) (= a GEN31) (= a GEN32)))
(assert (or (= c GEN33) (= c GEN34) (= c GEN35)))
(check-sat)
(get-model)
(pop)
(push)
(assert (= (str.++ GEN36 a) (str.++ GEN37 b)))
(check-sat)
(pop)
(push)
(assert (= (str.++ GEN38 a) (str.++ GEN39 b)))
(check-sat)
(pop)
(push)
(assert (= (str.++ GEN40 a) (str.++ GEN41 b)))
(check-sat)
(pop)
(push)
(assert (= (str.++ GEN42 a) (str.++ GEN43 b)))
(check-sat)
(pop)
(push)
(assert (= (str.++ GEN44 a) (str.++ b GEN45)))
(check-sat)
(pop)
(push)
(assert (= (str.++ GEN46 a) (str.++ b GEN47)))
(check-sat)
(pop)
(push)
(assert (= (str.++ a b) (str.++ c d e)))
(assert (= (str.len a) (str.len b)))
(check-sat)
(pop)
(push)
(assert (= (str.++ a b) (str.++ c d e)))
(assert (= (str.len a) (str.len b)))
(assert (not (= a GEN48)))
(check-sat)
(pop)
(push)
(assert (= (str.++ a b) (str.++ c d e)))
(assert (= (str.len a) (str.len b)))
(assert (> (str.len a) GEN49))
(check-sat)
(pop)
(push)
(assert (= (str.++ a b) c))
(assert (= (str.len a) GEN50))
(assert (= (str.len b) GEN51))
(check-sat)
(pop)
(push)
(assert (= (str.++ a b) c))
(assert (= (str.len a) GEN52))
(assert (= (str.len b) GEN53))
(check-sat)
(pop)
(push)
(assert (= (str.++ a b) c))
(assert (= (str.len a) GEN54))
(assert (= (str.len b) GEN55))
(check-sat)
(pop)
(push)
(assert (= (str.++ a b) (str.++ GEN56 c)))
(assert (= (str.len a) GEN57))
(check-sat)
(pop)
(push)
(assert (= (str.++ a b) (str.++ GEN58 c)))
(assert (= (str.len b) GEN59))
(check-sat)
(pop)
(push)
(assert (= (str.++ a b) (str.++ GEN60 c)))
(assert (= (str.len c) GEN61))
(check-sat)
(pop)
(push)
(assert (= (str.++ a b) (str.++ GEN62 c)))
(assert (= (str.len c) GEN63))
(assert (= (str.len a) GEN64))
(check-sat)
(pop)
(push)
(assert (= (str.++ a b) (str.++ GEN65 c)))
(assert (= (str.len c) GEN66))
(assert (= (str.len b) GEN67))
(check-sat)
(pop)
(push)
(assert (= (str.++ a b) (str.++ GEN68 c)))
(assert (= (str.len a) GEN69))
(assert (= (str.len b) GEN70))
(check-sat)
(pop)
(push)
(assert (= (str.++ a GEN71 b) (str.++ GEN72 c)))
(assert (= (str.len a) GEN73))
(check-sat)
(pop)
(push)
(assert (= (str.++ a GEN74 b) (str.++ GEN75 c)))
(assert (= (str.len b) GEN76))
(check-sat)
(pop)
(push)
(assert (= (str.++ a GEN77 b) (str.++ GEN78 c)))
(assert (= (str.len c) GEN79))
(check-sat)
(pop)
(push)
(assert (= (str.++ a GEN80 b) (str.++ GEN81 c)))
(assert (= (str.len c) GEN82))
(check-sat)
(pop)
(push)
(assert (= (str.++ a GEN83 b) (str.++ GEN84 c)))
(assert (= (str.len c) GEN85))
(check-sat)
(pop)
(push)
(assert (= (str.++ a GEN86 b) (str.++ GEN87 c)))
(assert (= (str.len c) GEN88))
(check-sat)
(pop)
(push)
(assert (= (str.++ GEN89 a) (str.++ b GEN90)))
(assert (= (str.len a) GEN91))
(check-sat)
(pop)
(push)
(assert (= (str.++ GEN92 a) (str.++ b GEN93)))
(assert (= (str.len a) GEN94))
(check-sat)
(pop)
(push)
(assert (= (str.++ GEN95 a) (str.++ b GEN96)))
(assert (>= (str.len a) GEN97))
(check-sat)
(pop)
(push)
(assert (= (str.++ a GEN98) (str.++ b GEN99 d)))
(assert (= (str.len a) GEN100))
(check-sat)
(pop)
(push)
(assert (not (= (= a GEN101) (= (str.len a) GEN102))))
(check-sat)
(pop)
(push)
(assert (= c (str.++ GEN103 b)))
(assert (= c (str.++ a GEN104)))
(assert (= (str.len a) GEN105))
(check-sat)
(pop)
(push)
(assert (= e (str.++ a GEN106)))
(assert (= e (str.++ b c)))
(assert (= e (str.++ GEN107 d)))
(check-sat)
(pop)
(push)
(assert (= e (str.++ a GEN108 b)))
(assert (= e (str.++ c GEN109 d)))
(assert (= (str.len e) GEN110))
(check-sat)
(pop)
(push)
(assert (= e (str.++ a GEN111 b)))
(assert (= e (str.++ c GEN112 d)))
(assert (<= (str.len e) GEN113))
(check-sat)
(pop)
(push)
(assert (= e (str.++ a GEN114 b)))
(assert (= e (str.++ c GEN115 d)))
(assert (= (str.len e) GEN116))
(check-sat)
(pop)
(push)
(assert (= e (str.++ a GEN117 b)))
(assert (= e (str.++ c GEN118 d)))
(assert (= (str.len e) GEN119))
(check-sat)
(pop)
(push)
(assert (= e (str.++ a GEN120 b)))
(assert (= e (str.++ c GEN121 d)))
(assert (>= (str.len e) GEN122))
(check-sat)
(pop)
(push)
(assert (= (str.++ a GEN123) (str.++ GEN124 a)))
(assert (= (str.len a) GEN125))
(check-sat)
(get-model)
(pop)
(push)
(assert (= (str.++ a GEN126) (str.++ GEN127 a)))
(assert (= (str.len a) GEN128))
(check-sat)
(pop)
(push)
(assert (not (= a b)))
(assert (= (str.len a) (str.len b)))
(check-sat)
(pop)
(push)
(assert (not (= (str.++ c a b) (str.++ b a))))
(check-sat)
(pop)
(push)
(assert (= (str.++ a GEN129 b) (str.++ b GEN130 c)))
(assert (= c (str.++ a b)))
(assert (not (= (str.++ a GEN131) (str.++ GEN132 a))))
(check-sat)
(pop)